p cnf 842
-12 -264
-13 -267
-14 -270
-15 -273
-16 -276
-17 -279
-18 -282
-19 -285
-20 -288
-21 -291
-22 -294
-23 295
-24 296
-25 297
-26 298
-27 299
-28 300
-29 301
-30 302
-31 -13
-31 -14
13 14 31
-32 -15
-32 -16
15 16 32
-33 -17
-33 -18
17 18 33
-34 -19
-34 -20
19 20 34
-35 -21
-35 -22
21 22 35
-36 -23
-36 -24
23 24 36
-37 -25
-37 -26
25 26 37
-38 -27
-38 -28
27 28 38
-39 -29
-39 -30
29 30 39
-40 31
-40 32
-31 -32 40
-41 33
-41 34
-33 -34 41
-42 35
-42 36
-35 -36 42
-43 37
-43 38
-37 -38 43
-44 40
-44 41
-40 -41 44
-45 42
-45 43
-42 -43 45
-46 44
-46 45
-44 -45 46
-47 39
-47 46
-39 -46 47
-48 -12
-48 13
12 -13 48
-49 12
-49 -13
-12 13 49
-50 -48
-50 -49
48 49 50
-51 12
-51 13
-12 -13 51
-52 -12
-52 -50
12 50 52
-53 12
-53 50
-12 -50 53
-54 -52
-54 -53
52 53 54
-55 12
-55 -50
-12 50 55
-56 -51
-56 -55
51 55 56
-57 -13
-57 14
13 -14 57
-58 13
-58 -14
-13 14 58
-59 -57
-59 -58
57 58 59
-60 13
-60 14
-13 -14 60
-61 56
-61 -59
-56 59 61
-62 -56
-62 59
56 -59 62
-63 -61
-63 -62
61 62 63
-64 -56
-64 -59
56 59 64
-65 -60
-65 -64
60 64 65
-66 -14
-66 15
14 -15 66
-67 14
-67 -15
-14 15 67
-68 -66
-68 -67
66 67 68
-69 14
-69 15
-14 -15 69
-70 65
-70 -68
-65 68 70
-71 -65
-71 68
65 -68 71
-72 -70
-72 -71
70 71 72
-73 -65
-73 -68
65 68 73
-74 -69
-74 -73
69 73 74
-75 -15
-75 16
15 -16 75
-76 15
-76 -16
-15 16 76
-77 -75
-77 -76
75 76 77
-78 15
-78 16
-15 -16 78
-79 74
-79 -77
-74 77 79
-80 -74
-80 77
74 -77 80
-81 -79
-81 -80
79 80 81
-82 -74
-82 -77
74 77 82
-83 -78
-83 -82
78 82 83
-84 -16
-84 17
16 -17 84
-85 16
-85 -17
-16 17 85
-86 -84
-86 -85
84 85 86
-87 16
-87 17
-16 -17 87
-88 83
-88 -86
-83 86 88
-89 -83
-89 86
83 -86 89
-90 -88
-90 -89
88 89 90
-91 -83
-91 -86
83 86 91
-92 -87
-92 -91
87 91 92
-93 -17
-93 18
17 -18 93
-94 17
-94 -18
-17 18 94
-95 -93
-95 -94
93 94 95
-96 17
-96 18
-17 -18 96
-97 92
-97 -95
-92 95 97
-98 -92
-98 95
92 -95 98
-99 -97
-99 -98
97 98 99
-100 -92
-100 -95
92 95 100
-101 -96
-101 -100
96 100 101
-102 -18
-102 19
18 -19 102
-103 18
-103 -19
-18 19 103
-104 -102
-104 -103
102 103 104
-105 18
-105 19
-18 -19 105
-106 101
-106 -104
-101 104 106
-107 -101
-107 104
101 -104 107
-108 -106
-108 -107
106 107 108
-109 -101
-109 -104
101 104 109
-110 -105
-110 -109
105 109 110
-111 -19
-111 20
19 -20 111
-112 19
-112 -20
-19 20 112
-113 -111
-113 -112
111 112 113
-114 19
-114 20
-19 -20 114
-115 110
-115 -113
-110 113 115
-116 -110
-116 113
110 -113 116
-117 -115
-117 -116
115 116 117
-118 -110
-118 -113
110 113 118
-119 -114
-119 -118
114 118 119
-120 -20
-120 21
20 -21 120
-121 20
-121 -21
-20 21 121
-122 -120
-122 -121
120 121 122
-123 20
-123 21
-20 -21 123
-124 119
-124 -122
-119 122 124
-125 -119
-125 122
119 -122 125
-126 -124
-126 -125
124 125 126
-127 -119
-127 -122
119 122 127
-128 -123
-128 -127
123 127 128
-129 -21
-129 22
21 -22 129
-130 21
-130 -22
-21 22 130
-131 -129
-131 -130
129 130 131
-132 21
-132 22
-21 -22 132
-133 128
-133 -131
-128 131 133
-134 -128
-134 131
128 -131 134
-135 -133
-135 -134
133 134 135
-136 -128
-136 -131
128 131 136
-137 -132
-137 -136
132 136 137
-138 -22
-138 23
22 -23 138
-139 22
-139 -23
-22 23 139
-140 -138
-140 -139
138 139 140
-141 22
-141 23
-22 -23 141
-142 137
-142 -140
-137 140 142
-143 -137
-143 140
137 -140 143
-144 -142
-144 -143
142 143 144
-145 -137
-145 -140
137 140 145
-146 -141
-146 -145
141 145 146
-147 -23
-147 24
23 -24 147
-148 23
-148 -24
-23 24 148
-149 -147
-149 -148
147 148 149
-150 23
-150 24
-23 -24 150
-151 146
-151 -149
-146 149 151
-152 -146
-152 149
146 -149 152
-153 -151
-153 -152
151 152 153
-154 -146
-154 -149
146 149 154
-155 -150
-155 -154
150 154 155
-156 -24
-156 25
24 -25 156
-157 24
-157 -25
-24 25 157
-158 -156
-158 -157
156 157 158
-159 24
-159 25
-24 -25 159
-160 155
-160 -158
-155 158 160
-161 -155
-161 158
155 -158 161
-162 -160
-162 -161
160 161 162
-163 -155
-163 -158
155 158 163
-164 -159
-164 -163
159 163 164
-165 -25
-165 26
25 -26 165
-166 25
-166 -26
-25 26 166
-167 -165
-167 -166
165 166 167
-168 25
-168 26
-25 -26 168
-169 164
-169 -167
-164 167 169
-170 -164
-170 167
164 -167 170
-171 -169
-171 -170
169 170 171
-172 -164
-172 -167
164 167 172
-173 -168
-173 -172
168 172 173
-174 -26
-174 27
26 -27 174
-175 26
-175 -27
-26 27 175
-176 -174
-176 -175
174 175 176
-177 26
-177 27
-26 -27 177
-178 173
-178 -176
-173 176 178
-179 -173
-179 176
173 -176 179
-180 -178
-180 -179
178 179 180
-181 -173
-181 -176
173 176 181
-182 -177
-182 -181
177 181 182
-183 -27
-183 28
27 -28 183
-184 27
-184 -28
-27 28 184
-185 -183
-185 -184
183 184 185
-186 27
-186 28
-27 -28 186
-187 182
-187 -185
-182 185 187
-188 -182
-188 185
182 -185 188
-189 -187
-189 -188
187 188 189
-190 -182
-190 -185
182 185 190
-191 -186
-191 -190
186 190 191
-192 -28
-192 29
28 -29 192
-193 28
-193 -29
-28 29 193
-194 -192
-194 -193
192 193 194
-195 28
-195 29
-28 -29 195
-196 191
-196 -194
-191 194 196
-197 -191
-197 194
191 -194 197
-198 -196
-198 -197
196 197 198
-199 -191
-199 -194
191 194 199
-200 -195
-200 -199
195 199 200
-201 -29
-201 30
29 -30 201
-202 29
-202 -30
-29 30 202
-203 -201
-203 -202
201 202 203
-204 29
-204 30
-29 -30 204
-205 200
-205 -203
-200 203 205
-206 -200
-206 203
200 -203 206
-207 -205
-207 -206
205 206 207
-208 -200
-208 -203
200 203 208
-209 -204
-209 -208
204 208 209
-210 12
-210 -54
-12 54 210
-211 -12
-211 14
12 -14 211
-212 -210
-212 -211
210 211 212
-213 12
-213 -63
-12 63 213
-214 -12
-214 15
12 -15 214
-215 -213
-215 -214
213 214 215
-216 12
-216 -72
-12 72 216
-217 -12
-217 16
12 -16 217
-218 -216
-218 -217
216 217 218
-219 12
-219 -81
-12 81 219
-220 -12
-220 17
12 -17 220
-221 -219
-221 -220
219 220 221
-222 12
-222 -90
-12 90 222
-223 -12
-223 18
12 -18 223
-224 -222
-224 -223
222 223 224
-225 12
-225 -99
-12 99 225
-226 -12
-226 19
12 -19 226
-227 -225
-227 -226
225 226 227
-228 12
-228 -108
-12 108 228
-229 -12
-229 20
12 -20 229
-230 -228
-230 -229
228 229 230
-231 12
-231 -117
-12 117 231
-232 -12
-232 21
12 -21 232
-233 -231
-233 -232
231 232 233
-234 12
-234 -126
-12 126 234
-235 -12
-235 22
12 -22 235
-236 -234
-236 -235
234 235 236
-237 12
-237 -135
-12 135 237
-238 -12
-238 23
12 -23 238
-239 -237
-239 -238
237 238 239
-240 12
-240 -144
-12 144 240
-241 -12
-241 24
12 -24 241
-242 -240
-242 -241
240 241 242
-243 12
-243 -153
-12 153 243
-244 -12
-244 25
12 -25 244
-245 -243
-245 -244
243 244 245
-246 12
-246 -162
-12 162 246
-247 -12
-247 26
12 -26 247
-248 -246
-248 -247
246 247 248
-249 12
-249 -171
-12 171 249
-250 -12
-250 27
12 -27 250
-251 -249
-251 -250
249 250 251
-252 12
-252 -180
-12 180 252
-253 -12
-253 28
12 -28 253
-254 -252
-254 -253
252 253 254
-255 12
-255 -189
-12 189 255
-256 -12
-256 29
12 -29 256
-257 -255
-257 -256
255 256 257
-258 12
-258 -198
-12 198 258
-259 -12
-259 30
12 -30 259
-260 -258
-260 -259
258 259 260
-261 12
-261 -207
-12 207 261
-262 1
-262 47
-1 -47 262
-263 -47
-263 48
47 -48 263
-264 -262
-264 -263
262 263 264
-265 2
-265 47
-2 -47 265
-266 -47
-266 -212
47 212 266
-267 -265
-267 -266
265 266 267
-268 3
-268 47
-3 -47 268
-269 -47
-269 -215
47 215 269
-270 -268
-270 -269
268 269 270
-271 4
-271 47
-4 -47 271
-272 -47
-272 -218
47 218 272
-273 -271
-273 -272
271 272 273
-274 5
-274 47
-5 -47 274
-275 -47
-275 -221
47 221 275
-276 -274
-276 -275
274 275 276
-277 6
-277 47
-6 -47 277
-278 -47
-278 -224
47 224 278
-279 -277
-279 -278
277 278 279
-280 7
-280 47
-7 -47 280
-281 -47
-281 -227
47 227 281
-282 -280
-282 -281
280 281 282
-283 8
-283 47
-8 -47 283
-284 -47
-284 -230
47 230 284
-285 -283
-285 -284
283 284 285
-286 9
-286 47
-9 -47 286
-287 -47
-287 -233
47 233 287
-288 -286
-288 -287
286 287 288
-289 10
-289 47
-10 -47 289
-290 -47
-290 -236
47 236 290
-291 -289
-291 -290
289 290 291
-292 11
-292 47
-11 -47 292
-293 -47
-293 -239
47 239 293
-294 -292
-294 -293
292 293 294
-295 -47
-295 -242
47 242 295
-296 -47
-296 -245
47 245 296
-297 -47
-297 -248
47 248 297
-298 -47
-298 -251
47 251 298
-299 -47
-299 -254
47 254 299
-300 -47
-300 -257
47 257 300
-301 -47
-301 -260
47 260 301
-302 -47
-302 261
47 -261 302
-303 -30
-303 209
30 -209 303
-304 12
-304 -303
-12 303 304
304
